LPFile/soft2.lp
Minimize
+ 8.0 x119 + 8.0 x120 + 8.0 x121 + 12.0 x122 + 12.0 x123 + 12.0 x124 + 20.0 x125 + 20.0 x126 + 20.0 x127 
Subject To
r_1: + x1 + x2 + x3 - 1.0 x110  = 0
r_2: - 0.6 x1 + x4 + x5 - 0.6 x119 - 0.6 x122 - 0.6 x125  = 0
r_3: - 0.4 x1 + x6 + x7 + x8 - 0.4 x119 - 0.4 x122 - 0.4 x125  = 0
r_4: - 0.5 x2 + x9 + x10 - 0.5 x120 - 0.5 x123 - 0.5 x126  = 0
r_5: - 0.5 x2 + x11 + x12 + x13 - 0.5 x120 - 0.5 x123 - 0.5 x126  = 0
r_6: - 1.0 x3 + x14 + x15 + x16 - 1.0 x121 - 1.0 x124 - 1.0 x127  = 0
r_7: - 0.5 x4 - 0.6 x9 + x17  = 0
r_8: - 0.5 x4 - 0.6 x11 + x18 + x19  = 0
r_9: - 1.0 x5 - 1.0 x6 - 0.6 x14 + x20 + x21  = 0
r_10: - 0.5 x7 - 0.4 x9 + x22 + x23  = 0
r_11: - 0.5 x7 - 0.4 x11 + x24 + x25 + x26  = 0
r_12: - 1.0 x8 - 0.4 x14 + x27 + x28 + x29  = 0
r_13: - 1.0 x10 - 1.0 x12 - 0.5 x15 + x30 + x31  = 0
r_14: - 1.0 x13 - 0.5 x15 + x32 + x33 + x34  = 0
r_15: - 1.0 x16 + x35 + x36 + x37  = 0
r_16: - 1.0 x17 - 1.0 x18 - 0.5 x20 - 1.0 x22 - 0.6 x30 + x38  = 0
r_17: - 1.0 x19 - 0.5 x20 - 1.0 x24 - 0.6 x32 + x39 + x40  = 0
r_18: - 1.0 x21 - 1.0 x27 - 0.6 x35 + x41 + x42  = 0
r_19: - 1.0 x23 - 1.0 x25 - 0.5 x28 - 0.4 x30 + x43 + x44  = 0
r_20: - 1.0 x26 - 0.5 x28 - 0.4 x32 + x45 + x46 + x47  = 0
r_21: - 1.0 x29 - 0.4 x35 + x48 + x49 + x50  = 0
r_22: - 1.0 x31 - 1.0 x33 - 0.5 x36 + x51 + x52  = 0
r_23: - 1.0 x34 - 0.5 x36 + x53 + x54 + x55  = 0
r_24: - 1.0 x37 + x56 + x57 + x58  = 0
r_25: - 1.0 x38 - 1.0 x39 - 0.5 x41 - 1.0 x43 - 0.6 x51 + x59  = 0
r_26: - 1.0 x40 - 0.5 x41 - 1.0 x45 - 0.6 x53 + x60 + x61  = 0
r_27: - 1.0 x42 - 1.0 x48 - 0.6 x56 + x62 + x63  = 0
r_28: - 1.0 x44 - 1.0 x46 - 0.5 x49 - 0.4 x51 + x64 + x65  = 0
r_29: - 1.0 x47 - 0.5 x49 - 0.4 x53 + x66 + x67 + x68  = 0
r_30: - 1.0 x50 - 0.4 x56 + x69 + x70 + x71  = 0
r_31: - 1.0 x52 - 1.0 x54 - 0.5 x57 + x72 + x73  = 0
r_32: - 1.0 x55 - 0.5 x57 + x74 + x75 + x76  = 0
r_33: - 1.0 x58 + x77 + x78 + x79  = 0
r_34: - 1.0 x59 - 1.0 x60 - 0.5 x62 - 1.0 x64 - 0.6 x72 + x80  = 0
r_35: - 1.0 x61 - 0.5 x62 - 1.0 x66 - 0.6 x74 + x81 + x82  = 0
r_36: - 1.0 x63 - 1.0 x69 - 0.6 x77 + x83 + x84  = 0
r_37: - 1.0 x65 - 1.0 x67 - 0.5 x70 - 0.4 x72 + x85  = 0
r_38: - 1.0 x68 - 0.5 x70 - 0.4 x74 + x86 + x87  = 0
r_39: - 1.0 x71 - 0.4 x77 + x88 + x89  = 0
r_40: - 1.0 x73 - 1.0 x75 - 0.5 x78 + x90  = 0
r_41: - 1.0 x76 - 0.5 x78 + x91 + x92  = 0
r_42: - 1.0 x79 + x93 + x94  = 0
r_43: - 1.0 x80 - 1.0 x81 - 0.5 x83 + x95  = 0
r_44: - 1.0 x82 - 0.5 x83 + x96 + x97  = 0
r_45: - 1.0 x84 + x98 + x99  = 0
r_46: - 1.0 x85 - 1.0 x86 - 0.5 x88 + x100  = 0
r_47: - 1.0 x87 - 0.5 x88 + x101 + x102  = 0
r_48: - 1.0 x89 + x103 + x104  = 0
r_49: - 1.0 x90 - 1.0 x91 - 0.5 x93 + x105  = 0
r_50: - 1.0 x92 - 0.5 x93 + x106 + x107  = 0
r_51: - 1.0 x94 + x108 + x109  = 0
r_52: - 1.0 x95 - 1.0 x96 - 0.5 x98 + x110  = 0
r_53: - 1.0 x97 - 0.5 x98 + x111  = 0
r_54: - 1.0 x99 + x112  = 0
r_55: - 1.0 x100 - 1.0 x101 - 0.5 x103 + x113  = 0
r_56: - 1.0 x102 - 0.5 x103 + x114  = 0
r_57: - 1.0 x104 + x115  = 0
r_58: - 1.0 x105 - 1.0 x106 - 0.5 x108 + x116  = 0
r_59: - 1.0 x107 - 0.5 x108 + x117  = 0
r_60: - 1.0 x109 + x118  = 0
r_61: - 1.0 x111 - 1.0 x112 + x119 + x120 + x121  = 0
r_62: - 1.0 x113 - 1.0 x116 + x122 + x123 + x124  = 0
r_63: - 1.0 x114 - 1.0 x115 - 1.0 x117 - 1.0 x118 + x125 + x126 + x127  = 0
r_00: + x1 + x2 + x3 + x4 + x5 + x6 + x7 + x8 + x9 + x10 + x11 + x12 + x13 + x14 + x15 + x16 + x17 + x18 + x19 + x20 + x21 + x22 + x23 + x24 + x25 + x26 + x27 + x28 + x29 + x30 + x31 + x32 + x33 + x34 + x35 + x36 + x37 + x38 + x39 + x40 + x41 + x42 + x43 + x44 + x45 + x46 + x47 + x48 + x49 + x50 + x51 + x52 + x53 + x54 + x55 + x56 + x57 + x58 + x59 + x60 + x61 + x62 + x63 + x64 + x65 + x66 + x67 + x68 + x69 + x70 + x71 + x72 + x73 + x74 + x75 + x76 + x77 + x78 + x79 + x80 + x81 + x82 + x83 + x84 + x85 + x86 + x87 + x88 + x89 + x90 + x91 + x92 + x93 + x94 + x95 + x96 + x97 + x98 + x99 + x100 + x101 + x102 + x103 + x104 + x105 + x106 + x107 + x108 + x109 + x110 + x111 + x112 + x113 + x114 + x115 + x116 + x117 + x118 + x119 + x120 + x121 + x122 + x123 + x124 + x125 + x126 + x127 = 1
End